50 8
847 360
482 153
705 358
219 782
153 685
848 334
936 614
502 48
766 338
96 755
672 305
285 338
830 381
262 746
803 527
173 373
501 420
963 328
323 84
959 252
520 171
589 283
147 788
281 849
286 403
448 104
371 892
545 581
883 389
229 872
289 328
149 333
129 940
115 981
285 369
343 974
902 183
481 154
49 839
267 753
262 239
864 504
231 884
172 747
743 228
114 806
890 107
792 298
609 354
512 499
